
Gurobi 9.1.2 (win64) logging started Tue Dec  7 09:16:57 2021

Gurobi Optimizer version 9.1.2 build v9.1.2rc0 (win64)
Thread count: 8 physical cores, 8 logical processors, using up to 8 threads
Optimize a model with 1 rows, 146 columns and 145 nonzeros
Model fingerprint: 0x30f28eb2
Variable types: 1 continuous, 145 integer (145 binary)
Coefficient statistics:
  Matrix range     [1e+00, 1e+01]
  Objective range  [1e+00, 1e+00]
  Bounds range     [1e+02, 1e+02]
  RHS range        [1e+01, 1e+01]
Presolve time: 0.00s
Presolved: 1 rows, 146 columns, 145 nonzeros
Variable types: 1 continuous, 145 integer (145 binary)

Root simplex log...

Iteration    Objective       Primal Inf.    Dual Inf.      Time
       0   -1.3609981e+02   1.438567e-01   0.000000e+00     18s
       7   -1.3143486e+02   0.000000e+00   0.000000e+00     18s

Root relaxation: objective -1.314349e+02, 7 iterations, 0.00 seconds

    Nodes    |    Current Node    |     Objective Bounds      |     Work
 Expl Unexpl |  Obj  Depth IntInf | Incumbent    BestBd   Gap | It/Node Time

     0     0  -84.12514    0    2          -  -84.12514      -     -   18s
H    0     0                       0.8198937  -84.12514      -     -   20s
H    0     0                       0.6410079  -84.12514      -     -   22s
     0     0  -57.55539    0    4    0.64101  -57.55539  9079%     -   22s
     0     0  -43.32779    0    7    0.64101  -43.32779  6859%     -   25s
     0     0  -41.72594    0    7    0.64101  -41.72594  6609%     -   25s
     0     0  -40.03735    0    8    0.64101  -40.03735  6346%     -   26s
     0     0  -39.90241    0    8    0.64101  -39.90241  6325%     -   26s
H    0     0                       0.6144199  -39.90241  6594%     -   28s
     0     2  -39.90241    0    8    0.61442  -39.90241  6594%     -   28s
   172    79   -6.87755   18    3    0.61442  -30.83581  5119%   3.4   35s
   664    18     cutoff   18         0.61442   -7.53768  1327%   4.6   45s

Cutting planes:
  Cover: 1
  MIR: 5
  Lazy constraints: 122

Explored 938 nodes (3761 simplex iterations) in 57.10 seconds
Thread count was 8 (of 8 available processors)

Solution count 3: 0.61442 0.641008 0.819894 

Optimal solution found (tolerance 1.00e-04)
Best objective 6.144198938460e-01, best bound 6.144198938460e-01, gap 0.0000%

User-callback calls 2148, time in user-callback 60.54 sec
